r = [
0,78,314,246,59,160,47,39,293,279,230,284,276,288,175,158,124,326,177,121,330,182,226,150,284,209,0
];
p = [
0,20,13,30,23,24,27,15,25,20,3,1,22,9,5,25,23,2,5,22,7,4,7,20,9,30,0
];
e = [
0,14,16,7,14,19,8,17,4,1,17,11,9,18,13,13,12,20,6,17,20,12,7,11,20,5,0
];
d = [
0,98,346,351,82,184,74,168,318,351,345,285,327,334,180,183,263,358,227,143,337,186,238,170,424,304,432
];
d_bar = [
0,116,358,378,103,206,98,182,341,369,348,286,347,342,185,206,284,360,232,163,343,190,244,188,432,331,432
];
w = [
0,0.777777778,1.333333333,0.259259259,0.666666667,0.863636364,0.333333333,1.214285714,0.173913043,0.055555556,5.666666667,11,0.45,2.25,2.6,0.565217391,0.571428571,10,1.2,0.85,3.333333333,3,1.166666667,0.611111111,2.5,0.185185185,0
];
